RAW/XY/fspd-mid/X-n125-k30.vrp_seed-8.out
40047	104.131	140.341
