RAW/XY/fspd-mid/X-n125-k30.vrp_seed-8.sol
Route #1: 17 78 28 124 50 49 82 56
Route #2: 10 18 83 61
Route #3: 55 36 79 1 46 63 118 109 111
Route #4: 25 68 47 22 40 65 80 4 58 94
Route #5: 67 71 104 29 41
Route #6: 113 39 103
Route #7: 34 6 59 9 19 11 114 87 16 52 3
Route #8: 62 117 27 30 85 108 26
Route #9: 84 121 54 64 77 7 107 101 20 95
Route #10: 51 105 89 88 115 70 2 13
Route #11: 8 35 43 90 102
Route #12: 21 91 112 110 122
Route #13: 72 119 45 76 93
Route #14: 98 53 69
Route #15: 100 12 99 73
Route #16: 75 120 60 31
Route #17: 32 5 57 106 38
Route #18: 48 37 33 86 96
Route #19: 24 23 66 116 15 92 81 42 74 97 44 123 14
Cost 40047.000000